--
&inputph
  recover  = .false.
  tr2_ph   = 1.0d-17,
  prefix   = 'pd',
  fildyn   = 'pd.dyn.xml',
  fildvscf = 'dvscf'
  ldisp    = .true.,
  nq1 = 6,
  nq2 = 6,
  nq3 = 6
 /
